decision_x1=[0,2];
decision_x2=[0,2];
decision_x3=[0,2];
decision_x4=[0,2];
decision_x5=[0,2];
random_y1=[0,2];
constraint_x3_x1=[
0,0,6.3|
0,1,0.92|
0,2,7.9|
1,0,2.1|
1,1,0.91|
1,2,0.94|
2,0,9.7|
2,1,6.4|
2,2,9.7|
];
constraint_x3_x2=[
0,0,9.1|
0,1,2.9|
0,2,7.7|
1,0,9.8|
1,1,8.3|
1,2,3.1|
2,0,3|
2,1,5|
2,2,6.9|
];
constraint_x4_x2=[
0,0,8.3|
0,1,8.5|
0,2,6|
1,0,4|
1,1,6.3|
1,2,2.3|
2,0,8.7|
2,1,0.67|
2,2,0.52|
];
constraint_x4_x3=[
0,0,7.6|
0,1,0.36|
0,2,8.7|
1,0,4.7|
1,1,1.1|
1,2,2.4|
2,0,3.7|
2,1,4.5|
2,2,5.9|
];
constraint_x5_x2=[
0,0,5.2|
0,1,1.5|
0,2,1.4|
1,0,4.8|
1,1,7.8|
1,2,7.2|
2,0,4.5|
2,1,9.4|
2,2,7.3|
];
constraint_x1_y1=[
0,0,2.5|
0,1,9.5|
0,2,2|
1,0,8.5|
1,1,1.3|
1,2,9.1|
2,0,1.2|
2,1,6|
2,2,0.95|
];
initial_distribution_y1=[0.36,0.34,0.29];
transition_y1=[
0.21,0.4,0.38|
0.34,0.14,0.52|
0.42,0.19,0.39|
];
